SDVRP instances/custom_instances/p10_28_split0.vrp
NAME:p10_28_split
BEST_KNOWN: 0
COMMENT: 0
DIMENSION: 963
CAPACITY: 200
EDGE_WEIGHT_FORMAT: FUNCTION
EDGE_WEIGHT_TYPE: EXACT_2D
NODE_COORD_SECTION
1 0.00000 0.00000
2 45 16
3 45 16
4 45 16
5 45 16
6 -49 -41
7 -49 -41
8 -49 -41
9 -49 -41
10 -49 -41
11 -9 -44
12 -9 -44
13 -9 -44
14 -33 30
15 -33 30
16 -33 30
17 28 5
18 28 5
19 28 5
20 28 5
21 -42 -13
22 -42 -13
23 -42 -13
24 -42 -13
25 -42 -13
26 46 43
27 46 43
28 46 43
29 46 43
30 46 43
31 46 43
32 46 43
33 42 -7
34 42 -7
35 42 -7
36 20 44
37 20 44
38 20 44
39 20 44
40 20 44
41 -19 45
42 -19 45
43 -19 45
44 -19 45
45 -19 45
46 -19 45
47 -38 -20
48 -38 -20
49 -38 -20
50 -38 -20
51 -38 -20
52 -38 -20
53 -38 -20
54 -38 -20
55 47 -48
56 47 -48
57 47 -48
58 47 -48
59 47 -48
60 47 -48
61 48 23
62 48 23
63 48 23
64 -47 0
65 -47 0
66 -3 1
67 -3 1
68 -3 1
69 -3 1
70 -3 1
71 -3 1
72 -25 -43
73 -25 -43
74 -25 -43
75 -25 -43
76 -5 -25
77 -5 -25
78 14 -36
79 14 -36
80 14 -36
81 14 -36
82 -10 44
83 -10 44
84 -10 44
85 -10 44
86 -45 -25
87 -45 -25
88 -45 -25
89 -34 -39
90 -34 -39
91 -34 -39
92 -34 -39
93 45 8
94 45 8
95 45 8
96 45 8
97 45 8
98 29 -21
99 29 -21
100 29 -21
101 29 -21
102 -38 16
103 -38 16
104 -38 16
105 -38 16
106 -38 16
107 -38 16
108 -42 39
109 -42 39
110 -42 39
111 -42 39
112 -42 39
113 -46 -39
114 -46 -39
115 -46 -39
116 -46 -39
117 -46 -39
118 -46 -39
119 6 -6
120 6 -6
121 6 -6
122 6 -6
123 12 41
124 12 41
125 12 41
126 12 41
127 12 41
128 50 50
129 50 50
130 0 -39
131 0 -39
132 0 -39
133 0 -39
134 21 29
135 21 29
136 -28 23
137 -28 23
138 -28 23
139 -28 23
140 -28 23
141 32 1
142 32 1
143 32 1
144 32 1
145 32 1
146 32 1
147 8 -10
148 8 -10
149 8 -10
150 8 -10
151 42 -20
152 42 -20
153 42 -20
154 42 -20
155 42 -20
156 42 -20
157 4 -37
158 4 -37
159 -27 -15
160 -27 -15
161 -27 -15
162 -27 -15
163 26 6
164 26 6
165 26 6
166 26 6
167 26 6
168 26 6
169 16 2
170 16 2
171 16 2
172 16 2
173 16 2
174 16 2
175 16 2
176 49 42
177 49 42
178 49 42
179 49 42
180 49 42
181 49 42
182 49 42
183 39 19
184 39 19
185 39 19
186 39 19
187 39 19
188 39 19
189 -43 -49
190 -43 -49
191 -43 -49
192 -43 -49
193 -43 -49
194 -21 -6
195 -21 -6
196 -21 -6
197 -21 -6
198 -21 -6
199 -21 -6
200 -21 -6
201 -21 -6
202 -41 -26
203 -41 -26
204 -41 -26
205 -41 -26
206 -41 -26
207 -41 -26
208 -41 -26
209 43 -20
210 43 -20
211 43 -20
212 43 -20
213 43 -20
214 43 -20
215 -31 -31
216 -31 -31
217 -31 -31
218 1 -1
219 1 -1
220 1 -1
221 1 -1
222 1 -1
223 1 -1
224 -46 47
225 -46 47
226 -46 47
227 -45 13
228 -45 13
229 -45 13
230 -45 13
231 11 -26
232 11 -26
233 11 -26
234 11 -26
235 11 -26
236 -18 5
237 -18 5
238 -18 5
239 -18 5
240 -13 10
241 -13 10
242 -13 10
243 -35 -44
244 -35 -44
245 -35 -44
246 -35 -44
247 -35 -44
248 -35 -44
249 -35 -44
250 -36 -1
251 -36 -1
252 -36 -1
253 -36 -1
254 -36 -1
255 1 28
256 1 28
257 1 28
258 1 28
259 -18 -16
260 -18 -16
261 -18 -16
262 -18 -16
263 -18 -16
264 -18 -16
265 -31 -18
266 -31 -18
267 -31 -18
268 -31 -18
269 -31 -18
270 -31 -18
271 50 -49
272 50 -49
273 50 -49
274 50 -49
275 8 -23
276 8 -23
277 8 -23
278 8 -23
279 8 -23
280 8 -23
281 49 42
282 49 42
283 49 42
284 7 50
285 7 50
286 7 50
287 7 50
288 2 -49
289 2 -49
290 2 -49
291 2 -49
292 2 -49
293 2 -49
294 2 -49
295 -15 14
296 -15 14
297 -15 14
298 -15 14
299 -15 14
300 -15 14
301 -15 14
302 -17 0
303 -17 0
304 -17 0
305 -17 0
306 -17 0
307 46 -10
308 46 -10
309 46 -10
310 46 -10
311 46 -10
312 -15 -29
313 -15 -29
314 -15 -29
315 -15 -29
316 -15 -29
317 -15 -29
318 5 28
319 5 28
320 5 28
321 12 -14
322 12 -14
323 12 -14
324 12 -14
325 12 -14
326 12 -14
327 -20 -30
328 -20 -30
329 -20 -30
330 -20 -30
331 -20 -30
332 -13 24
333 -13 24
334 -13 24
335 -13 24
336 -13 24
337 -34 -30
338 -34 -30
339 -34 -30
340 -34 -30
341 -34 -30
342 -13 28
343 -13 28
344 -13 28
345 -13 28
346 -13 28
347 -2 -14
348 -2 -14
349 -2 -14
350 -2 -14
351 49 -34
352 49 -34
353 49 -34
354 -36 1
355 -36 1
356 -36 1
357 37 16
358 37 16
359 0 -3
360 0 -3
361 0 -3
362 0 -3
363 0 -3
364 0 -3
365 -37 7
366 -37 7
367 -37 7
368 -37 7
369 32 -50
370 32 -50
371 32 -50
372 32 -50
373 32 -50
374 16 36
375 16 36
376 16 36
377 16 36
378 16 36
379 16 36
380 7 12
381 7 12
382 7 12
383 7 12
384 7 12
385 7 12
386 -29 -47
387 -29 -47
388 -29 -47
389 -29 -47
390 -20 20
391 -20 20
392 -20 20
393 -20 20
394 -20 20
395 -20 20
396 2 -33
397 2 -33
398 2 -33
399 2 -33
400 -48 -19
401 -48 -19
402 -48 -19
403 -48 -19
404 -31 -7
405 -31 -7
406 -31 -7
407 16 3
408 16 3
409 16 3
410 16 3
411 -20 38
412 -20 38
413 -20 38
414 -20 38
415 -20 38
416 2 -38
417 2 -38
418 2 -38
419 2 -38
420 2 -38
421 2 -38
422 35 8
423 35 8
424 35 8
425 35 8
426 35 8
427 35 8
428 9 -27
429 9 -27
430 9 -27
431 9 -27
432 9 -27
433 9 -27
434 9 -27
435 45 9
436 45 9
437 45 9
438 45 9
439 45 9
440 20 -32
441 20 -32
442 20 -32
443 20 -32
444 20 -32
445 20 -32
446 20 -32
447 -48 47
448 -48 47
449 -48 47
450 -48 47
451 -48 47
452 24 48
453 24 48
454 24 48
455 24 48
456 24 48
457 24 48
458 24 48
459 24 48
460 0 -6
461 0 -6
462 0 -6
463 5 0
464 5 0
465 5 0
466 5 0
467 5 0
468 5 0
469 22 0
470 22 0
471 22 0
472 22 0
473 -15 -30
474 -15 -30
475 -15 -30
476 -15 -30
477 -39 12
478 -39 12
479 -39 12
480 -39 12
481 -39 12
482 27 32
483 27 32
484 27 32
485 27 32
486 27 32
487 50 31
488 50 31
489 50 31
490 50 31
491 50 31
492 29 34
493 -3 34
494 -3 34
495 -3 34
496 -3 34
497 -3 34
498 -3 34
499 -3 34
500 -46 31
501 -46 31
502 -46 31
503 -46 31
504 -46 31
505 20 12
506 20 12
507 20 12
508 20 12
509 20 12
510 -45 21
511 -45 21
512 -45 21
513 33 5
514 33 5
515 33 5
516 33 5
517 33 5
518 33 5
519 -30 -29
520 -30 -29
521 -30 -29
522 -30 -29
523 -30 -29
524 47 -13
525 47 -13
526 47 -13
527 47 -13
528 47 -13
529 -27 12
530 -27 12
531 -27 12
532 -27 12
533 -27 12
534 10 33
535 10 33
536 10 33
537 10 33
538 10 33
539 10 33
540 10 33
541 45 46
542 45 46
543 45 46
544 45 46
545 14 -15
546 14 -15
547 14 -15
548 14 -15
549 14 -15
550 14 -15
551 23 47
552 23 47
553 23 47
554 23 47
555 23 47
556 23 47
557 -48 23
558 -48 23
559 -48 23
560 -48 23
561 -48 23
562 -48 23
563 8 -24
564 8 -24
565 8 -24
566 8 -24
567 7 17
568 7 17
569 7 17
570 7 17
571 46 -26
572 46 -26
573 11 1
574 11 1
575 11 1
576 11 1
577 11 1
578 11 1
579 11 1
580 11 1
581 -21 39
582 -21 39
583 -21 39
584 -1 -47
585 -1 -47
586 -1 -47
587 -1 -47
588 -1 -47
589 33 -37
590 33 -37
591 33 -37
592 33 -37
593 -8 -50
594 -8 -50
595 -8 -50
596 -8 -50
597 -8 -50
598 -8 -50
599 22 24
600 22 24
601 22 24
602 22 24
603 22 24
604 22 24
605 -32 -19
606 -32 -19
607 -32 -19
608 19 28
609 19 28
610 19 28
611 19 28
612 19 28
613 46 -5
614 46 -5
615 46 -5
616 46 -5
617 46 -5
618 50 24
619 50 24
620 50 24
621 50 24
622 50 24
623 50 24
624 50 24
625 22 29
626 22 29
627 22 29
628 -15 -36
629 -15 -36
630 -15 -36
631 -15 -36
632 23 24
633 23 24
634 23 24
635 23 24
636 23 24
637 -49 -39
638 -49 -39
639 21 6
640 21 6
641 21 6
642 21 6
643 21 6
644 21 6
645 -19 27
646 -19 27
647 -19 27
648 -5 38
649 -5 38
650 -5 38
651 -5 38
652 -5 38
653 19 50
654 19 50
655 19 50
656 19 50
657 -33 -5
658 -33 -5
659 -33 -5
660 -33 -5
661 -33 -5
662 -33 -5
663 -33 -5
664 -33 -5
665 44 26
666 44 26
667 44 26
668 44 26
669 44 26
670 -9 -19
671 -9 -19
672 -9 -19
673 -9 -19
674 -9 -19
675 -9 -19
676 -9 -19
677 24 11
678 24 11
679 24 11
680 24 11
681 -5 -45
682 -5 -45
683 -5 -45
684 -5 -45
685 -5 -45
686 -5 -45
687 -44 31
688 -44 31
689 -44 31
690 -44 31
691 -44 31
692 -44 31
693 -44 31
694 24 -25
695 24 -25
696 24 -25
697 24 -25
698 24 -25
699 24 -25
700 -20 -43
701 -20 -43
702 -23 -15
703 -23 -15
704 -23 -15
705 -23 -15
706 2 -47
707 2 -47
708 2 -47
709 2 -47
710 2 -47
711 2 -47
712 3 20
713 3 20
714 3 20
715 3 20
716 3 20
717 25 -30
718 25 -30
719 25 -30
720 25 -30
721 6 -18
722 6 -18
723 6 -18
724 6 -18
725 1 -43
726 1 -43
727 1 -43
728 1 -43
729 1 -43
730 1 -43
731 1 -43
732 1 -43
733 -32 0
734 -32 0
735 -32 0
736 -32 0
737 -32 0
738 -23 -24
739 -23 -24
740 -23 -24
741 -23 -24
742 -23 -24
743 -23 -24
744 -23 -24
745 -23 -24
746 15 -8
747 15 -8
748 15 -8
749 15 -8
750 15 -8
751 -37 22
752 -37 22
753 -37 22
754 -37 22
755 -37 22
756 33 -20
757 33 -20
758 33 -20
759 33 -20
760 33 -20
761 -37 -46
762 -37 -46
763 -37 -46
764 35 14
765 35 14
766 35 14
767 -26 25
768 -26 25
769 -26 25
770 -26 25
771 45 -11
772 45 -11
773 45 -11
774 45 -11
775 -44 -48
776 -44 -48
777 -44 -48
778 -44 -48
779 -44 -48
780 -19 41
781 -19 41
782 -19 41
783 -40 29
784 -40 29
785 -40 29
786 -40 29
787 -43 13
788 -43 13
789 -43 13
790 -43 13
791 -43 13
792 -43 13
793 -43 13
794 -42 -49
795 -42 -49
796 -42 -49
797 -42 -49
798 -42 -49
799 -9 39
800 -9 39
801 -9 39
802 -9 39
803 10 -5
804 10 -5
805 10 -5
806 10 -5
807 10 -5
808 10 -5
809 43 -25
810 43 -25
811 43 -25
812 43 -25
813 43 -25
814 43 -25
815 43 -25
816 -2 34
817 -2 34
818 -2 34
819 48 13
820 48 13
821 48 13
822 48 13
823 48 13
824 -49 10
825 -49 10
826 -49 10
827 -49 10
828 -49 10
829 -49 10
830 -49 10
831 -49 10
832 5 37
833 5 37
834 5 37
835 5 37
836 5 37
837 5 37
838 5 37
839 -21 -25
840 -21 -25
841 -21 -25
842 -21 -25
843 -21 -25
844 -21 -25
845 -22 29
846 -22 29
847 -22 29
848 29 9
849 29 9
850 29 9
851 -7 17
852 -7 17
853 -7 17
854 29 -15
855 29 -15
856 29 -15
857 29 -15
858 29 -15
859 2 26
860 2 26
861 2 26
862 2 26
863 2 26
864 2 26
865 2 26
866 2 26
867 -45 5
868 -45 5
869 -45 5
870 -45 5
871 -45 5
872 -37 20
873 -37 20
874 -37 20
875 -37 20
876 -37 20
877 -37 20
878 -37 20
879 -25 15
880 -25 15
881 -25 15
882 43 -4
883 43 -4
884 43 -4
885 43 -4
886 43 -4
887 43 -4
888 -24 -42
889 -24 -42
890 -25 13
891 -25 13
892 -25 13
893 6 3
894 6 3
895 6 3
896 6 3
897 14 5
898 14 5
899 14 5
900 14 5
901 -29 11
902 -29 11
903 -29 11
904 -29 11
905 31 -48
906 31 -48
907 31 -48
908 31 -48
909 -47 -25
910 -47 -25
911 -47 -25
912 -47 -25
913 -21 -9
914 -21 -9
915 -21 -9
916 -21 -9
917 -21 -9
918 -6 31
919 -6 31
920 -6 31
921 -6 31
922 -6 31
923 -26 19
924 -26 19
925 -26 19
926 -26 19
927 -26 19
928 -26 19
929 -13 -41
930 -13 -41
931 -13 -41
932 -13 -41
933 -13 -41
934 -13 -41
935 -24 -26
936 -24 -26
937 -24 -26
938 -24 -26
939 -24 -26
940 -24 -26
941 31 -4
942 31 -4
943 31 -4
944 20 -6
945 20 -6
946 20 -6
947 20 -6
948 20 -6
949 20 -6
950 37 -1
951 37 -1
952 37 -1
953 37 -1
954 37 -1
955 37 -1
956 32 -50
957 32 -50
958 32 -50
959 32 -50
960 32 -50
961 -16 -24
962 -16 -24
963 -16 -24
DEMAND_SECTION
1 0
2 40
3 40
4 2
5 1
6 40
7 40
8 10
9 2
10 2
11 40
12 40
13 1
14 40
15 10
16 1
17 40
18 2
19 2
20 1
21 40
22 20
23 2
24 2
25 2
26 40
27 40
28 10
29 2
30 2
31 2
32 2
33 40
34 40
35 20
36 40
37 2
38 2
39 2
40 1
41 40
42 20
43 10
44 2
45 2
46 2
47 40
48 40
49 10
50 2
51 2
52 2
53 2
54 1
55 40
56 40
57 2
58 2
59 2
60 2
61 40
62 20
63 2
64 40
65 40
66 40
67 40
68 2
69 2
70 2
71 2
72 20
73 2
74 2
75 1
76 40
77 10
78 40
79 40
80 2
81 2
82 40
83 20
84 10
85 2
86 40
87 2
88 1
89 40
90 40
91 10
92 2
93 20
94 10
95 2
96 2
97 2
98 40
99 10
100 2
101 1
102 40
103 20
104 10
105 2
106 2
107 2
108 40
109 20
110 2
111 2
112 2
113 40
114 40
115 10
116 2
117 2
118 2
119 40
120 40
121 2
122 2
123 40
124 40
125 2
126 2
127 1
128 40
129 40
130 40
131 20
132 10
133 1
134 20
135 10
136 40
137 20
138 2
139 2
140 1
141 40
142 10
143 2
144 2
145 2
146 1
147 40
148 20
149 2
150 1
151 40
152 40
153 2
154 2
155 2
156 1
157 40
158 20
159 20
160 2
161 2
162 2
163 40
164 20
165 10
166 2
167 2
168 2
169 40
170 20
171 10
172 2
173 2
174 2
175 1
176 40
177 40
178 2
179 2
180 2
181 2
182 1
183 20
184 10
185 2
186 2
187 2
188 2
189 40
190 10
191 2
192 2
193 2
194 40
195 40
196 10
197 2
198 2
199 2
200 2
201 1
202 40
203 40
204 2
205 2
206 2
207 2
208 1
209 40
210 2
211 2
212 2
213 2
214 1
215 40
216 40
217 2
218 40
219 40
220 10
221 2
222 2
223 2
224 40
225 40
226 1
227 40
228 10
229 2
230 1
231 20
232 2
233 2
234 2
235 1
236 40
237 40
238 10
239 1
240 40
241 10
242 2
243 40
244 10
245 2
246 2
247 2
248 2
249 1
250 20
251 2
252 2
253 2
254 1
255 40
256 10
257 2
258 1
259 40
260 10
261 2
262 2
263 2
264 1
265 40
266 20
267 10
268 2
269 2
270 1
271 20
272 10
273 2
274 1
275 40
276 20
277 10
278 2
279 2
280 1
281 40
282 40
283 20
284 40
285 2
286 2
287 1
288 40
289 40
290 2
291 2
292 2
293 2
294 1
295 20
296 10
297 2
298 2
299 2
300 2
301 1
302 40
303 40
304 10
305 2
306 2
307 20
308 2
309 2
310 2
311 1
312 40
313 2
314 2
315 2
316 2
317 1
318 40
319 2
320 2
321 40
322 40
323 10
324 2
325 2
326 1
327 20
328 10
329 2
330 2
331 1
332 40
333 40
334 2
335 2
336 2
337 40
338 40
339 2
340 2
341 1
342 40
343 20
344 2
345 2
346 2
347 40
348 10
349 2
350 2
351 40
352 10
353 2
354 40
355 40
356 1
357 40
358 10
359 40
360 10
361 2
362 2
363 2
364 1
365 40
366 40
367 2
368 1
369 40
370 40
371 10
372 2
373 1
374 40
375 20
376 10
377 2
378 2
379 1
380 40
381 20
382 10
383 2
384 2
385 2
386 40
387 40
388 2
389 1
390 40
391 10
392 2
393 2
394 2
395 1
396 40
397 2
398 2
399 1
400 40
401 40
402 10
403 2
404 40
405 20
406 10
407 40
408 40
409 10
410 1
411 40
412 40
413 2
414 2
415 2
416 40
417 2
418 2
419 2
420 2
421 1
422 20
423 10
424 2
425 2
426 2
427 2
428 40
429 20
430 10
431 2
432 2
433 2
434 2
435 40
436 2
437 2
438 2
439 1
440 40
441 20
442 10
443 2
444 2
445 2
446 2
447 40
448 20
449 2
450 2
451 1
452 40
453 40
454 10
455 2
456 2
457 2
458 2
459 1
460 20
461 10
462 1
463 20
464 10
465 2
466 2
467 2
468 2
469 40
470 2
471 2
472 2
473 40
474 2
475 2
476 2
477 40
478 20
479 10
480 2
481 2
482 40
483 20
484 10
485 2
486 1
487 40
488 40
489 10
490 2
491 1
492 40
493 20
494 10
495 2
496 2
497 2
498 2
499 1
500 20
501 10
502 2
503 2
504 2
505 40
506 20
507 2
508 2
509 2
510 40
511 20
512 1
513 40
514 20
515 2
516 2
517 2
518 1
519 20
520 2
521 2
522 2
523 2
524 40
525 40
526 10
527 2
528 2
529 40
530 40
531 10
532 2
533 2
534 40
535 40
536 10
537 2
538 2
539 2
540 2
541 40
542 20
543 10
544 2
545 40
546 20
547 2
548 2
549 2
550 1
551 40
552 10
553 2
554 2
555 2
556 1
557 40
558 10
559 2
560 2
561 2
562 1
563 40
564 20
565 2
566 1
567 40
568 20
569 10
570 1
571 40
572 1
573 40
574 40
575 10
576 2
577 2
578 2
579 2
580 1
581 40
582 40
583 10
584 40
585 20
586 2
587 2
588 2
589 40
590 2
591 2
592 2
593 40
594 20
595 2
596 2
597 2
598 1
599 20
600 10
601 2
602 2
603 2
604 2
605 40
606 20
607 1
608 40
609 40
610 2
611 2
612 1
613 40
614 40
615 10
616 2
617 1
618 40
619 20
620 10
621 2
622 2
623 2
624 2
625 20
626 10
627 1
628 40
629 40
630 2
631 2
632 40
633 20
634 10
635 2
636 2
637 40
638 1
639 20
640 10
641 2
642 2
643 2
644 2
645 40
646 40
647 2
648 20
649 10
650 2
651 2
652 2
653 20
654 2
655 2
656 2
657 40
658 40
659 10
660 2
661 2
662 2
663 2
664 1
665 40
666 20
667 2
668 2
669 2
670 40
671 20
672 2
673 2
674 2
675 2
676 1
677 40
678 40
679 10
680 1
681 40
682 20
683 10
684 2
685 2
686 1
687 40
688 40
689 2
690 2
691 2
692 2
693 1
694 40
695 40
696 2
697 2
698 2
699 1
700 40
701 1
702 20
703 10
704 2
705 1
706 40
707 20
708 2
709 2
710 2
711 2
712 40
713 20
714 2
715 2
716 2
717 40
718 20
719 2
720 2
721 40
722 40
723 2
724 1
725 40
726 40
727 10
728 2
729 2
730 2
731 2
732 1
733 40
734 20
735 2
736 2
737 1
738 40
739 40
740 10
741 2
742 2
743 2
744 2
745 1
746 40
747 40
748 2
749 2
750 2
751 40
752 20
753 2
754 2
755 2
756 40
757 20
758 10
759 2
760 1
761 40
762 40
763 1
764 40
765 40
766 20
767 40
768 2
769 2
770 2
771 40
772 20
773 2
774 1
775 20
776 2
777 2
778 2
779 2
780 40
781 2
782 1
783 40
784 40
785 10
786 2
787 40
788 20
789 2
790 2
791 2
792 2
793 1
794 20
795 2
796 2
797 2
798 1
799 40
800 40
801 2
802 2
803 20
804 10
805 2
806 2
807 2
808 2
809 40
810 40
811 10
812 2
813 2
814 2
815 2
816 20
817 10
818 2
819 40
820 20
821 10
822 2
823 2
824 40
825 20
826 10
827 2
828 2
829 2
830 2
831 1
832 20
833 10
834 2
835 2
836 2
837 2
838 1
839 20
840 2
841 2
842 2
843 2
844 1
845 40
846 20
847 1
848 40
849 20
850 1
851 40
852 20
853 1
854 40
855 20
856 10
857 2
858 2
859 40
860 40
861 10
862 2
863 2
864 2
865 2
866 1
867 40
868 20
869 2
870 2
871 1
872 20
873 10
874 2
875 2
876 2
877 2
878 1
879 20
880 10
881 2
882 40
883 10
884 2
885 2
886 2
887 1
888 40
889 40
890 40
891 40
892 10
893 20
894 2
895 2
896 2
897 20
898 10
899 2
900 1
901 40
902 40
903 10
904 1
905 40
906 40
907 2
908 2
909 40
910 40
911 10
912 2
913 40
914 40
915 10
916 2
917 2
918 20
919 10
920 2
921 2
922 2
923 40
924 20
925 10
926 2
927 2
928 2
929 40
930 20
931 2
932 2
933 2
934 2
935 40
936 40
937 10
938 2
939 2
940 1
941 40
942 40
943 20
944 40
945 40
946 2
947 2
948 2
949 2
950 20
951 10
952 2
953 2
954 2
955 1
956 40
957 20
958 10
959 2
960 2
961 40
962 2
963 1
DEPOT_SECTION
1
-1
EOF