SDVRP instances/custom_instances/p10_28_split0.sol
962 -1 820 821 819 822 818 434 437 438 436 435 95 96 93 92 94 517 516 -2 3 4 620 618 623 617 622 619 621 61 60 62 186 187 185 184 894 893 -10 11 12 593 597 592 594 596 595 680 460 -13 15 14 449 447 446 450 448 223 225 224 767 -24 20 22 21 23 399 402 401 400 47 -26 27 282 281 180 175 178 179 280 177 -31 30 25 29 28 127 128 543 542 541 540 -33 208 212 210 209 211 213 152 151 150 153 155 154 854 856 -34 32 613 612 616 615 614 881 886 -37 35 38 555 554 552 550 553 551 455 458 453 457 452 456 451 454 -52 49 46 53 50 51 48 908 911 909 910 87 86 85 161 160 -58 56 54 59 55 57 272 273 271 270 351 352 350 811 810 814 98 -68 70 69 67 66 65 358 219 217 222 -75 76 312 316 311 313 314 315 472 474 328 329 330 326 327 670 671 -104 102 101 103 105 106 226 229 227 228 791 792 786 787 789 788 790 -115 113 776 774 775 777 778 191 188 189 190 192 796 793 795 797 794 89 843 842 -118 119 804 803 807 573 572 465 464 466 462 -121 120 696 695 698 588 590 589 591 904 905 717 718 716 719 -125 122 126 124 123 36 39 654 652 653 655 283 285 286 284 833 831 837 836 832 834 835 715 -131 132 130 583 584 587 727 729 726 730 725 724 728 731 418 420 419 398 397 -146 147 149 323 320 322 321 325 324 548 547 544 -148 440 439 441 443 444 445 442 80 78 79 77 428 431 433 430 723 -158 159 268 265 264 269 267 266 605 604 606 704 703 701 702 -173 19 18 17 16 512 513 515 514 425 426 423 421 422 424 847 849 897 -176 181 488 490 486 489 487 666 667 665 664 668 -183 182 356 357 763 765 764 848 -198 195 193 194 196 199 197 200 912 913 914 916 915 -202 204 205 207 206 201 203 338 336 337 936 740 739 743 741 744 -220 221 218 467 463 575 576 578 574 577 168 170 172 174 171 169 408 407 409 -231 230 233 234 232 372 370 959 955 956 368 371 957 958 369 906 907 -235 891 889 890 878 240 239 -237 236 238 903 901 902 531 532 530 528 529 -241 391 390 389 644 645 646 333 334 332 851 -243 242 248 246 247 244 245 761 762 760 90 91 88 841 839 840 -260 258 259 738 737 742 838 960 962 961 -262 261 263 340 339 112 117 114 116 6 7 8 5 9 636 637 -277 279 276 278 274 275 429 432 427 563 564 565 562 -294 296 295 343 345 341 342 344 918 920 917 921 494 495 492 496 493 817 816 815 -297 299 300 766 768 139 138 137 135 136 923 922 927 926 924 925 880 879 -298 393 392 394 769 110 107 108 111 109 500 502 501 503 499 687 692 688 689 686 691 690 -301 663 657 662 660 661 656 659 404 403 405 -304 305 303 302 736 732 734 735 733 354 355 353 -362 360 708 710 705 709 707 706 293 290 291 288 289 292 287 585 586 684 685 683 681 682 -363 359 361 129 415 416 417 156 157 396 395 -365 366 367 364 477 476 478 480 479 900 -379 567 566 712 711 850 -381 384 568 569 377 375 373 374 378 376 538 537 535 539 536 533 534 -382 383 380 134 133 624 626 625 491 481 482 483 484 485 -385 388 386 387 74 73 71 72 887 888 473 475 675 672 674 -406 163 162 167 166 164 165 639 643 638 642 640 641 899 898 896 892 895 -461 459 349 348 347 346 673 669 720 722 721 -469 471 144 143 140 142 141 145 949 950 951 954 952 953 941 942 940 -497 498 648 650 647 649 651 82 84 83 81 799 798 801 800 919 -508 505 506 507 504 676 679 678 677 468 470 579 -510 511 509 558 556 560 561 559 557 826 829 823 825 830 828 827 824 -521 519 518 520 522 215 214 216 935 938 939 934 937 -546 549 545 693 697 694 99 100 97 857 855 853 -570 571 808 809 813 812 757 756 759 755 758 -581 580 44 41 40 42 43 45 780 779 781 -599 598 600 603 601 602 635 631 632 634 633 607 608 609 610 611 -628 630 629 627 700 699 932 930 933 928 931 929 -658 253 250 249 252 251 64 63 868 866 867 870 869 -714 713 318 317 319 254 257 256 255 862 860 861 859 858 863 865 864 -770 773 772 771 524 523 525 527 526 307 309 306 308 310 883 885 884 882 -783 782 785 784 754 751 752 750 753 876 874 872 871 875 877 873 -802 805 806 747 746 748 745 749 946 947 948 944 943 945 -846 844 845 582 413 411 410 414 412 335 331 852 0 





OBJ=
5962.948
BEST_KNOWN=
0.000